c read Graph
c width = 3
c time = 395 ms
c width = 3
c time = 4043 ms
s td 15 4 18
b 1 1 2 7
b 2 2 3 7 8
b 3 4 5 11 12
b 4 3 7 8 14
b 5 3 8 9 14
b 6 4 11 12 17
b 7 3 9 14 15
b 8 3 9 15 16
b 9 4 11 16 17
b 10 3 4 9 16
b 11 4 9 10 16
b 12 4 10 11 16
b 13 12 17 18
b 14 7 13 14
b 15 5 6 12
1 2
2 4
3 15
3 6
4 14
4 5
5 7
6 13
6 9
7 8
8 10
9 12
10 11
11 12
